
Gurobi 6.5.2 (win64) logging started 07/24/16 17:53:01


Gurobi 6.5.2 (win64) logging started 07/24/16 17:53:01

Optimize a model with 4914 rows, 862 columns and 11889 nonzeros
Coefficient statistics:
  Matrix range    [6e-08, 4e+02]
  Objective range [1e+00, 1e+00]
  Bounds range    [1e+00, 1e+00]
  RHS range       [6e-06, 2e+03]
Presolve removed 4229 rows and 97 columns
Presolve time: 0.02s
Presolved: 685 rows, 765 columns, 3556 nonzeros
Variable types: 285 continuous, 480 integer (480 binary)

Root relaxation: objective 1.703404e+01, 2092 iterations, 0.06 seconds

    Nodes    |    Current Node    |     Objective Bounds      |     Work
 Expl Unexpl |  Obj  Depth IntInf | Incumbent    BestBd   Gap | It/Node Time

     0     0   17.03404    0  156          -   17.03404      -     -    0s
H    0     0                      19.8109930   17.03404  14.0%     -    0s
     0     0   18.89580    0  134   19.81099   18.89580  4.62%     -    0s
H    0     0                      19.7789554   18.89580  4.47%     -    0s
     0     0   19.21418    0  119   19.77896   19.21418  2.86%     -    0s
H    0     0                      19.6999472   19.21418  2.47%     -    0s
     0     0   19.21551    0  118   19.69995   19.21551  2.46%     -    0s
H    0     0                      19.6419998   19.21551  2.17%     -    0s
H    0     0                      19.6330314   19.21551  2.13%     -    0s
     0     0   19.22734    0  118   19.63303   19.22734  2.07%     -    0s
H    0     0                      19.6229179   19.22734  2.02%     -    0s
     0     0   19.22734    0  107   19.62292   19.22734  2.02%     -    0s
H    0     0                      19.5917995   19.22734  1.86%     -    0s
     0     0   19.22734    0  115   19.59180   19.22734  1.86%     -    0s
     0     0   19.24416    0  113   19.59180   19.24416  1.77%     -    0s
     0     0   19.24991    0  105   19.59180   19.24991  1.75%     -    0s
     0     0   19.25298    0  109   19.59180   19.25298  1.73%     -    0s
     0     0   19.25314    0  108   19.59180   19.25314  1.73%     -    0s
     0     0   19.25373    0  107   19.59180   19.25373  1.73%     -    0s
     0     0   19.25373    0   94   19.59180   19.25373  1.73%     -    0s
H    0     0                      19.5630960   19.25373  1.58%     -    0s
     0     2   19.25373    0   93   19.56310   19.25373  1.58%     -    0s
H  486   306                      19.5566346   19.36991  0.95%   8.9    0s
H 1082   568                      19.5561294   19.39156  0.84%   8.9    0s
* 2558   739              36      19.5459487   19.42716  0.61%   9.4    1s
* 7476  1773              34      19.5444342   19.47138  0.37%   8.0    1s
H20530   947                      19.5444339   19.52248  0.11%   6.9    3s

Cutting planes:
  Gomory: 2
  MIR: 28
  Flow cover: 18

Explored 22836 nodes (155522 simplex iterations) in 3.56 seconds
Thread count was 8 (of 8 available processors)

Optimal solution found (tolerance 1.00e-04)
Best objective 1.954443394502e+01, best bound 1.954443394499e+01, gap 0.0%

Wrote requested result file 'H1\instance28\\Results28E_Sol6.lp'

